# Objective value = 15534
x_0_0 0
x_0_1 0
x_0_2 0
x_0_3 0
x_0_4 0
x_0_5 1
x_0_6 0
x_0_7 0
x_0_8 0
x_0_9 0
x_0_10 0
x_0_11 0
x_0_12 0
x_0_13 0
x_0_14 0
x_0_15 0
x_0_16 0
x_0_17 0
x_0_18 0
x_0_19 0
x_0_20 0
x_0_21 0
x_0_22 0
x_0_23 0
x_0_24 0
x_0_25 0
x_0_26 0
x_0_27 1
x_0_28 0
x_0_29 0
x_0_30 0
x_0_31 0
x_0_32 0
x_0_33 1
x_0_34 0
x_0_35 0
x_0_36 0
x_0_37 0
x_0_38 0
x_0_39 0
x_1_0 0
x_1_1 0
x_1_2 0
x_1_3 0
x_1_4 1
x_1_5 0
x_1_6 0
x_1_7 0
x_1_8 0
x_1_9 0
x_1_10 0
x_1_11 0
x_1_12 0
x_1_13 0
x_1_14 0
x_1_15 0
x_1_16 0
x_1_17 0
x_1_18 0
x_1_19 0
x_1_20 0
x_1_21 0
x_1_22 0
x_1_23 0
x_1_24 0
x_1_25 0
x_1_26 0
x_1_27 0
x_1_28 0
x_1_29 0
x_1_30 1
x_1_31 0
x_1_32 0
x_1_33 0
x_1_34 1
x_1_35 0
x_1_36 0
x_1_37 0
x_1_38 0
x_1_39 0
x_2_0 0
x_2_1 0
x_2_2 1
x_2_3 0
x_2_4 0
x_2_5 0
x_2_6 0
x_2_7 0
x_2_8 1
x_2_9 0
x_2_10 0
x_2_11 0
x_2_12 0
x_2_13 0
x_2_14 0
x_2_15 0
x_2_16 0
x_2_17 0
x_2_18 0
x_2_19 0
x_2_20 0
x_2_21 0
x_2_22 0
x_2_23 0
x_2_24 0
x_2_25 0
x_2_26 0
x_2_27 0
x_2_28 1
x_2_29 0
x_2_30 0
x_2_31 0
x_2_32 1
x_2_33 0
x_2_34 0
x_2_35 0
x_2_36 0
x_2_37 0
x_2_38 0
x_2_39 0
x_3_0 0
x_3_1 0
x_3_2 0
x_3_3 0
x_3_4 0
x_3_5 0
x_3_6 0
x_3_7 0
x_3_8 0
x_3_9 0
x_3_10 0
x_3_11 1
x_3_12 0
x_3_13 0
x_3_14 0
x_3_15 0
x_3_16 0
x_3_17 0
x_3_18 0
x_3_19 0
x_3_20 0
x_3_21 0
x_3_22 0
x_3_23 0
x_3_24 1
x_3_25 0
x_3_26 0
x_3_27 0
x_3_28 0
x_3_29 0
x_3_30 0
x_3_31 0
x_3_32 0
x_3_33 0
x_3_34 0
x_3_35 0
x_3_36 0
x_3_37 0
x_3_38 0
x_3_39 0
x_4_0 0
x_4_1 0
x_4_2 0
x_4_3 0
x_4_4 0
x_4_5 0
x_4_6 1
x_4_7 0
x_4_8 0
x_4_9 0
x_4_10 0
x_4_11 0
x_4_12 1
x_4_13 0
x_4_14 0
x_4_15 0
x_4_16 0
x_4_17 0
x_4_18 0
x_4_19 0
x_4_20 0
x_4_21 0
x_4_22 0
x_4_23 1
x_4_24 0
x_4_25 0
x_4_26 0
x_4_27 0
x_4_28 0
x_4_29 0
x_4_30 0
x_4_31 0
x_4_32 0
x_4_33 0
x_4_34 0
x_4_35 0
x_4_36 0
x_4_37 0
x_4_38 0
x_4_39 0
x_5_0 0
x_5_1 0
x_5_2 0
x_5_3 0
x_5_4 0
x_5_5 0
x_5_6 0
x_5_7 0
x_5_8 0
x_5_9 0
x_5_10 1
x_5_11 0
x_5_12 0
x_5_13 0
x_5_14 0
x_5_15 0
x_5_16 0
x_5_17 0
x_5_18 0
x_5_19 0
x_5_20 0
x_5_21 0
x_5_22 0
x_5_23 0
x_5_24 0
x_5_25 0
x_5_26 0
x_5_27 0
x_5_28 0
x_5_29 0
x_5_30 0
x_5_31 1
x_5_32 0
x_5_33 0
x_5_34 0
x_5_35 0
x_5_36 0
x_5_37 0
x_5_38 0
x_5_39 0
x_6_0 0
x_6_1 0
x_6_2 0
x_6_3 0
x_6_4 0
x_6_5 0
x_6_6 0
x_6_7 0
x_6_8 0
x_6_9 0
x_6_10 0
x_6_11 0
x_6_12 0
x_6_13 0
x_6_14 0
x_6_15 0
x_6_16 0
x_6_17 0
x_6_18 0
x_6_19 0
x_6_20 1
x_6_21 0
x_6_22 0
x_6_23 0
x_6_24 0
x_6_25 1
x_6_26 0
x_6_27 0
x_6_28 0
x_6_29 0
x_6_30 0
x_6_31 0
x_6_32 0
x_6_33 0
x_6_34 0
x_6_35 0
x_6_36 0
x_6_37 0
x_6_38 0
x_6_39 0
x_7_0 0
x_7_1 0
x_7_2 0
x_7_3 1
x_7_4 0
x_7_5 0
x_7_6 0
x_7_7 0
x_7_8 0
x_7_9 0
x_7_10 0
x_7_11 0
x_7_12 0
x_7_13 0
x_7_14 0
x_7_15 0
x_7_16 0
x_7_17 0
x_7_18 0
x_7_19 0
x_7_20 0
x_7_21 1
x_7_22 0
x_7_23 0
x_7_24 0
x_7_25 0
x_7_26 0
x_7_27 0
x_7_28 0
x_7_29 0
x_7_30 0
x_7_31 0
x_7_32 0
x_7_33 0
x_7_34 0
x_7_35 0
x_7_36 0
x_7_37 0
x_7_38 0
x_7_39 0
x_8_0 0
x_8_1 1
x_8_2 0
x_8_3 0
x_8_4 0
x_8_5 0
x_8_6 0
x_8_7 0
x_8_8 0
x_8_9 0
x_8_10 0
x_8_11 0
x_8_12 0
x_8_13 0
x_8_14 0
x_8_15 0
x_8_16 0
x_8_17 0
x_8_18 0
x_8_19 0
x_8_20 0
x_8_21 0
x_8_22 0
x_8_23 0
x_8_24 0
x_8_25 0
x_8_26 1
x_8_27 0
x_8_28 0
x_8_29 0
x_8_30 0
x_8_31 0
x_8_32 0
x_8_33 0
x_8_34 0
x_8_35 0
x_8_36 0
x_8_37 0
x_8_38 0
x_8_39 0
x_9_0 1
x_9_1 0
x_9_2 0
x_9_3 0
x_9_4 0
x_9_5 0
x_9_6 0
x_9_7 0
x_9_8 0
x_9_9 0
x_9_10 0
x_9_11 0
x_9_12 0
x_9_13 0
x_9_14 0
x_9_15 0
x_9_16 0
x_9_17 0
x_9_18 0
x_9_19 0
x_9_20 0
x_9_21 0
x_9_22 1
x_9_23 0
x_9_24 0
x_9_25 0
x_9_26 0
x_9_27 0
x_9_28 0
x_9_29 1
x_9_30 0
x_9_31 0
x_9_32 0
x_9_33 0
x_9_34 0
x_9_35 0
x_9_36 0
x_9_37 0
x_9_38 0
x_9_39 0
